Traveling Salesman Problem/TSP_generados/Aleatorio1620390972_11.tsp
NAME: Aleatorio1620390972_11.tsp
COMMENT: Randomly generated scenario
TYPE: TSP
DIMENSION: 11
EDGE_WEIGHT_TYPE: ATT
NODE_COORD_SECTION
1 35.62 14.72
2 35.08 31.17
3 42.87 27.38
4 33.56 2.68
5 24.84 29.23
6 16.74 4.89
7 2.92 24.03
8 6.38 22.13
9 19.17 2.12
10 18.74 31.33
11 24.04 48.83
