Traveling Salesman Problem/TSP_generados/Aleatorio1620390972_11.opt.tour
NAME: Aleatorio1620390972_11.opt.tour
COMMENT: Optimal solution for Aleatorio1620390972_11 (141.93093444192672)
TYPE: TOUR
DIMENSION: 11
TOUR_SECTION
1 3 2 11 5 10 7 8 6 9 4
-1
EOF
